p cnf 45 30
d 0.875 0.125
d 0.875 0.125
d 0.875 0.125
d 0.875 0.125
d 0.875 0.125
d 0.875 0.125
d 0.875 0.125
d 0.875 0.125
d 0.875 0.125
d 0.875 0.125
d 0.875 0.125
d 0.875 0.125
d 0.875 0.125
d 0.875 0.125
38
-37
43 -38 -0
38 -43 -0
44 -37 -2
37 -44 -2
28 -36 -4
36 -28 -4
31 -34 -6
34 -31 -6
37 -44 -8
44 -37 -8
32 -38 -10
38 -32 -10
32 -39 -12
39 -32 -12
42 -29 -14
29 -42 -14
40 -38 -16
38 -40 -16
41 -42 -18
42 -41 -18
42 -37 -20
37 -42 -20
30 -35 -22
35 -30 -22
43 -38 -24
38 -43 -24
34 -29 -26
29 -34 -26